6732
7502
8022
8611
9077
9366
9592
9810
10020
10200
10379
10533
10643
10728
10824
10860
10891
10901
10914
10932
10945
10945
10945
10945
10945
10945
10945
10945
10945
10945
10945
10945
10945
10945
10945
10945
10945
10945
10945
10945
10945
10945
10945
10945
10945
10945
10945
10945
10945
10945
10945
10945
10945
10945
10945
10945
10945
10945
10945
10945
10945
10945
10945
10945
10945
10945
10945
10945
10945
10945
10945
10945
10945
10945
10945
10945
10945
10945
10945
10945
10945
10945
10945
10945
10945
10945
10945
10945
10945
10945
10945
10945
10945
10945
10945
10945
10945
10945
10945
